\ This file has been generated by DOcplex
\ ENCODING=ISO-8859-1
\Problem name: Orandom10842_6.lp

Minimize
 obj: - 35.999999989868 x0 - 17.999999994934 x1 - 8.999999997467 x2
      - 27.999999989868 x3 - 13.999999994934 x4 - 6.999999997467 x5 + [
      15.999999994210 x0^2 + 15.999999994210 x0*x1 + 7.999999997105 x0*x2
      + 31.999999988420 x0*x3 + 15.999999994210 x0*x4 + 7.999999997105 x0*x5
      + 3.999999998553 x1^2 + 3.999999998553 x1*x2 + 15.999999994210 x1*x3
      + 7.999999997105 x1*x4 + 3.999999998553 x1*x5 + 0.999999999638 x2^2
      + 7.999999997105 x2*x3 + 3.999999998553 x2*x4 + 1.999999999276 x2*x5
      + 47.999999994210 x3^2 + 47.999999994210 x3*x4 + 23.999999997105 x3*x5
      + 11.999999998553 x4^2 + 11.999999998553 x4*x5 + 2.999999999638 x5^2 ]/2 +
      24.499999991134
Subject To

Bounds
 0 <= x0 <= 1
 0 <= x1 <= 1
 0 <= x2 <= 1
 0 <= x3 <= 1
 0 <= x4 <= 1
 0 <= x5 <= 1

Binaries
 x0 x1 x2 x3 x4 x5
End
